DIMENSION :24
NODE_COORD_SECTION
1 75.10656565924796 -0.6533165434284456
2 -81.33379115527148 80.33336864751354
3 -49.823288422972254 20.854718331765866
4 8.034624654990608 14.313192283556404
5 -1.1104548534557779 -73.01218746446212
6 -75.48820273791945 62.47815058473981
7 -53.49771582427933 69.34331979322772
8 -90.57187312146846 -52.818210552032
9 -47.48262649341599 -43.61664109975128
10 51.41462069603082 -66.00086193779225
11 8.163412080385044 27.65795600800365
12 -21.35785611881056 -63.12771570923239
13 -63.13525599642886 -7.287274201750108
14 35.216943007708664 99.60121019877468
15 54.810233276067095 -65.58146813222696
16 42.2999702882058 66.40569819390382
17 5.958449446286934 85.24983415552151
18 67.36927665599256 -46.30177102944921
19 -75.70707875325711 -74.92264983939344
20 29.146220011881837 -34.1281876341734
21 95.86780070160822 20.32975750312353
22 51.05773193546719 59.82074055927504
23 94.16073848550462 26.918260315969647
24 42.7086164409902 56.07639534218626
EOF
